66 -58 15 56 55 54 22 52 45 12 -66 51 32 8 23 37 65 -13 28 5 -9 48 21 25 63 -62 61 30 57 3 60 -4 6 34 64 40 44 42 53 -39 36 1 49 35 19 20 14 -31 18 26 2 47 33 -17 38 10 29 24 59 41 -46 11 50 7 27 43 16 0

